10	5
0	5	3	5	1	4	2
1	3	8	6	10
2	2	8	6
3	1	6
4	1	7
5	2	9	10
6	1	9
7	3	8	6	10
8	1	9
9	1	11
10	1	11
11	0
0	0	0	0	0	0	0
1	3	2	2	3	2	2
2	9	3	5	5	5	5
3	8	1	3	2	5	3
4	6	1	3	2	1	2
5	8	1	2	2	4	2
6	10	3	1	4	5	1
7	6	3	3	1	3	4
8	4	1	3	5	4	2
9	10	4	4	2	2	3
10	10	2	1	4	2	5
11	0	0	0	0	0	0
7	10	9	10	10
